Name: Fis0506-2
Courses: 30
Rooms: 5
Days: 5
Periods_per_day: 9
Curricula: 13
Constraints: 94

COURSES:
c0006 t000 2 2 75
c0007 t001 2 2 75
c0008 t002 9 2 75
c0009 t003 7 2 75
c0017 t004 3 3 65
c0018 t005 9 2 65
c0019 t006 8 2 65
c0079 t007 6 4 11
c0081 t008 6 4 8
c0082 t009 5 4 11
c0083 t010 5 4 11
c0085 t011 5 4 11
c0026 t012 6 4 52
c0027 t013 6 4 52
c0028 t014 3 3 52
c0034 t015 6 4 11
c0036 t016 6 4 11
c0038 t017 6 4 33
c0040 t018 5 4 33
c0042 t001 5 4 11
c0044 t002 5 4 11
c0045 t019 6 4 33
c0107 t020 6 4 20
c0108 t004 9 2 20
c0109 t021 4 3 20
c0110 t000 7 2 25
c0111 t022 2 2 25
c0113 t003 3 3 50
c0115 t003 6 4 20
c0116 t023 4 3 20

ROOMS:
C	100
F	30
G	20
O	12
LUF2	60

CURRICULA:
q000  4 c0006 c0007 c0008 c0009 
q001  3 c0017 c0018 c0019 
q002  4 c0026 c0027 c0028 c0079 
q003  4 c0026 c0027 c0028 c0085 
q004  4 c0026 c0027 c0028 c0083 
q005  4 c0026 c0027 c0028 c0081 
q006  4 c0026 c0027 c0028 c0082 
q007  4 c0038 c0045 c0040 c0044 
q008  5 c0038 c0045 c0040 c0034 c0042 
q009  4 c0038 c0045 c0040 c0036 
q010  2 c0107 c0108 
q011  3 c0109 c0115 c0116 
q012  3 c0110 c0111 c0113

UNAVAILABILITY_CONSTRAINTS:
c0006 4 0
c0006 4 1
c0006 4 2
c0006 4 3
c0006 4 4
c0006 4 5
c0006 4 6
c0006 4 7
c0006 4 8
c0007 0 0
c0007 0 1
c0007 0 2
c0007 0 3
c0007 0 4
c0007 0 5
c0007 0 6
c0007 0 7
c0007 0 8
c0026 3 0
c0026 3 1
c0026 3 2
c0026 3 3
c0026 3 4
c0026 3 5
c0026 3 6
c0026 3 7
c0026 3 8
c0009 2 2
c0009 2 3
c0009 2 4
c0009 2 5
c0009 3 0
c0009 3 1
c0009 3 2
c0009 3 3
c0009 3 4
c0009 3 5
c0038 3 2
c0038 3 3
c0038 3 4
c0038 3 5
c0038 4 2
c0038 4 3
c0038 4 4
c0038 4 5
c0085 0 7
c0085 1 7
c0085 2 7
c0085 3 7
c0085 4 7
c0085 0 8
c0085 1 8
c0085 2 8
c0085 3 8
c0085 4 8
c0113 0 0
c0113 1 0
c0113 2 0
c0113 3 0
c0113 4 0
c0113 0 1
c0113 1 1
c0113 2 1
c0113 3 1
c0113 4 1
c0113 0 2
c0113 1 2
c0113 2 2
c0113 3 2
c0113 4 2
c0113 0 3
c0113 1 3
c0113 2 3
c0113 3 3
c0113 4 3
c0115 0 3
c0115 1 3
c0115 2 3
c0115 3 3
c0115 4 3
c0115 0 4
c0115 1 4
c0115 2 4
c0115 3 4
c0115 4 4
c0115 0 5
c0115 1 5
c0115 2 5
c0115 3 5
c0115 4 5
c0116 0 0
c0116 0 1
c0116 4 7
c0116 4 8

END.
